 $contrl units=angs scftyp=rhf coord=unique mult=1  $end
 $contrl runtyp=energy nosym=1 maxit=200 $end
 $SYSTEM MWORDS=300 $END
 $guess  guess=huckel  $end
 $contrl icut=10 $end

 $data
 Formaldehyde
 C1
C  6 3.594222    6.218747    8.509041
S   10
  1   8236.0000000              0.0005310        
  2   1235.0000000              0.0041080        
  3    280.8000000              0.0210870        
  4     79.2700000              0.0818530        
  5     25.5900000              0.2348170        
  6      8.9970000              0.4344010        
  7      3.3190000              0.3461290       
  8      0.9059000              0.0393780 
  9      0.3643000             -0.0089830
 10      0.1285000              0.0023850         
S   10
  1   8236.0000000             -0.0001130        
  2   1235.0000000             -0.0008780        
  3    280.8000000             -0.0045400        
  4     79.2700000             -0.0181330        
  5     25.5900000             -0.0557600        
  6      8.9970000             -0.1268950        
  7      3.3190000             -0.1703520        
  8      0.9059000              0.1403820
  9      0.3643000              0.5986840        
 10      0.1285000              0.3953890
S   1
  1      0.9059000              1.0000000        
S   1
  1      0.1285000              1.0000000        
P   5
  1     18.7100000              0.0140310        
  2      4.1330000              0.0868660        
  3      1.2000000              0.2902160
  4      0.3827000              0.5010080
  5      0.1209000              0.3434060
P   1
  1      0.3827000              1.0000000        
P   1
  1      0.1209000              1.0000000        
D   1
  1      1.0970000              1.0000000        
D   1
  1      0.3180000              1.0000000        
F   1
  1      0.7610000              1.0000000        

O  8 2.916401    6.422257    7.534980
S   10
  1  15330.0000000              0.0005080        
  2   2299.0000000              0.0039290        
  3    522.4000000              0.0202430        
  4    147.3000000              0.0791810        
  5     47.5500000              0.2306870        
  6     16.7600000              0.4331180        
  7      6.2070000              0.3502600        
  8      1.7520000              0.0427280
  9      0.6882000             -0.0081540        
 10      0.2384000              0.0023810
S   10
  1  15330.0000000             -0.0001150        
  2   2299.0000000             -0.0008950        
  3    522.4000000             -0.0046360        
  4    147.3000000             -0.0187240        
  5     47.5500000             -0.0584630        
  6     16.7600000             -0.1364630        
  7      6.2070000             -0.1757400
  8      1.7520000              0.1609340        
  9      0.6882000              0.6034180
 10      0.2384000              0.3787650        
S   1
  1      1.7520000              1.0000000        
S   1
  1      0.2384000              1.0000000        
P   5
  1     34.4600000              0.0159280        
  2      7.7490000              0.0997400        
  3      2.2800000              0.3104920
  4      0.7156000              0.4910260
  5      0.2140000              0.3363370        
P   1
  1      0.7156000              1.0000000        
P   1
  1      0.2140000              1.0000000        
D   1
  1      2.3140000              1.0000000        
D   1
  1      0.6450000              1.0000000        
F   1
  1      1.4280000              1.0000000        

H  1 3.528797    5.268722    9.100681
S   5
  1     33.8700000              0.0060680        
  2      5.0950000              0.0453080        
  3      1.1590000              0.2028220        
  4      0.3258000              0.5039030
  5      0.1027000              0.3834210
S   1
  1      0.3258000              1.0000000        
S   1
  1      0.1027000              1.0000000        
P   1
  1      1.4070000              1.0000000        
P   1
  1      0.3880000              1.0000000        
D   1
  1      1.0570000              1.0000000        

H  1 4.337350    6.964926    8.891556
S   5
  1     33.8700000              0.0060680
  2      5.0950000              0.0453080
  3      1.1590000              0.2028220
  4      0.3258000              0.5039030
  5      0.1027000              0.3834210
S   1
  1      0.3258000              1.0000000
S   1
  1      0.1027000              1.0000000
P   1
  1      1.4070000              1.0000000
P   1
  1      0.3880000              1.0000000
D   1
  1      1.0570000              1.0000000

 $END


